
******************************************************************************
This program contains Ipopt, a library for large-scale nonlinear optimization.
 Ipopt is released as open source code under the Eclipse Public License (EPL).
         For more information visit http://projects.coin-or.org/Ipopt
******************************************************************************

This is Ipopt version 3.12.6, running with linear solver ma57.

Number of nonzeros in equality constraint Jacobian...:        8
Number of nonzeros in inequality constraint Jacobian.:        0
Number of nonzeros in Lagrangian Hessian.............:       10

Total number of variables............................:        5
                     variables with only lower bounds:        0
                variables with lower and upper bounds:        0
                     variables with only upper bounds:        0
Total number of equality constraints.................:        3
Total number of inequality constraints...............:        0
        inequality constraints with only lower bounds:        0
   inequality constraints with lower and upper bounds:        0
        inequality constraints with only upper bounds:        0

iter    objective    inf_pr   inf_du lg(mu)  ||d||  lg(rg) alpha_du alpha_pr  ls
   0  9.2000000e+01 2.24e+00 5.23e+01  -1.0 0.00e+00    -  0.00e+00 0.00e+00   0
   1  5.0181124e+01 6.59e-01 8.57e+00  -1.0 9.64e-01    -  1.00e+00 1.00e+00f  1
   2  4.1873002e+01 2.18e-02 1.60e+01  -1.0 1.62e-01   2.0 1.00e+00 1.00e+00f  1
   3  3.9764073e+01 1.47e-02 7.09e+00  -1.0 1.32e-01   1.5 1.00e+00 1.00e+00f  1
   4  3.4914622e+01 2.93e+00 1.85e+02  -1.0 2.08e+00   1.0 1.00e+00 1.00e+00f  1
   5  2.7611860e+01 4.31e-01 3.78e+01  -1.0 6.47e-01    -  1.00e+00 1.00e+00f  1
   6  2.4530373e+01 9.24e-02 6.03e+00  -1.0 4.70e-01    -  1.00e+00 1.00e+00f  1
   7  2.4963145e+01 6.20e-03 4.25e-01  -1.0 1.41e-01    -  1.00e+00 1.00e+00h  1
   8  2.4978708e+01 3.29e-05 2.21e-03  -1.7 8.81e-03    -  1.00e+00 1.00e+00h  1
   9  2.4978810e+01 1.14e-09 7.17e-08  -3.8 5.42e-05    -  1.00e+00 1.00e+00h  1
iter    objective    inf_pr   inf_du lg(mu)  ||d||  lg(rg) alpha_du alpha_pr  ls
  10  2.4978810e+01 4.44e-16 1.78e-15  -8.6 1.80e-09    -  1.00e+00 1.00e+00h  1

Number of Iterations....: 10

                                   (scaled)                 (unscaled)
Objective...............:   2.3128527350797491e+01    2.4978809538861288e+01
Dual infeasibility......:   1.7763568394002505e-15    1.9184653865522706e-15
Constraint violation....:   4.4408920985006262e-16    4.4408920985006262e-16
Complementarity.........:   0.0000000000000000e+00    0.0000000000000000e+00
Overall NLP error.......:   1.7763568394002505e-15    1.9184653865522706e-15


Number of objective function evaluations             = 11
Number of objective gradient evaluations             = 11
Number of equality constraint evaluations            = 11
Number of inequality constraint evaluations          = 0
Number of equality constraint Jacobian evaluations   = 11
Number of inequality constraint Jacobian evaluations = 0
Number of Lagrangian Hessian evaluations             = 10
Total CPU secs in IPOPT (w/o function evaluations)   =      0.003
Total CPU secs in NLP function evaluations           =      0.000

EXIT: Optimal Solution Found.

************************ CUTEst statistics ************************


 Package used            :  IPOPT
 Problem                 :  MWRIGHT   
 # variables             =               5
 # constraints           =               3
 # objective functions   =        0.2300000E+02
 # objective gradients   =        0.1200000E+02
 # objective Hessians    =        0.1100000E+02
 # Hessian-vector prdct  =        0.0000000E+00
 # constraints functions =        0.2400000E+02
 # constraints gradients =        0.1300000E+02
 # constraints Hessians  =        0.1100000E+02
 Exit code               =               0
 Final f                 =   0.2497881E+02
 Set up time             =            0.00 seconds
 Solve time              =            0.02 seconds


******************************************************************

System Time =       0.0040000002 s.
